200
1000
208
206
205
205
204
203
203
202
201
201
201
200
200
199
199
198
198
197
196
196
196
195
195
194
193
191
191
189
189
189
188
187
187
186
185
183
183
183
183
182
182
181
179
179
179
179
179
177
177
176
176
174
173
172
171
170
170
167
166
164
163
163
162
162
161
158
155
155
153
151
149
149
148
146
146
144
142
142
142
141
141
141
137
136
136
134
134
134
134
134
131
129
129
128
127
125
125
124
123
123
123
123
122
120
119
119
118
118
115
115
114
113
113
111
106
106
105
104
103
102
101
101
101
100
97
96
96
96
95
94
92
92
91
91
91
89
89
89
88
86
86
85
81
79
79
73
72
71
70
70
69
68
67
66
65
63
62
60
60
60
59
58
58
58
56
55
53
53
53
49
46
43
43
41
40
40
39
39
39
35
34
30
30
30
30
29
28
28
25
24
24
21
20
19
18
18
16
15
14
13
